p cnf 8 27
-3 -2 0
2 3 -3 6 0
1 -4 0
-8 5 0
6 0
8 -3 0
8 -5 -1 7 0
1 -5 -4 0
2 6 0
7 0
-6 2 0
2 -1 0
3 -6 2 0
-7 3 -1 0
-8 -3 -2 0
-7 -1 0
2 3 -2 -1 0
-7 3 -2 7 0
1 0
3 0
2 -2 0
6 7 0
-4 0
-4 0
-1 6 -2 0
-8 -5 4 0
-6 0
